2,3
3,9
5,5
7,2
8,9
10,6
12,2
14,2
16,4
18,6
20,8
23,0
25,2
27,4
29,6
31,8
34,0
36,2
38,4
40,6
42,8
45,0
47,2
49,4
51,6
53,9
56,1
58,3
60,5
62,7
64,9
67,1
69,3
71,5
73,7
75,9
78,1
80,3
82,5
84,7
86,8
88,7
89,9
90,6
91,2
91,7
92,3
92,6
92,6
92,6
92,6
92,6
92,6
92,6
92,6
92,6
92,6
92,6
92,6
92,6
92,6
92,6
92,6
92,6
92,6
92,6
92,6
92,6
92,6
92,6
92,6
92,6
92,6
92,6
92,6
92,6
92,6
92,6
92,6
92,6
92,6
92,6
92,6
92,6
92,6
92,6
92,6
92,6
92,6
92,6
92,6
0,0
0,0
0,0
0,0
